26 4
30 33 39 58 39 10 13 76 48 19 74 73 77 76 66 78 51 69 78 54 48 50 76 72 105 38
17 45 46 55 34 14 11 62 40 40 80 78 69 84 65 79 59 66 71 62 38 58 73 100 95 38
28 35 29 51 17 36 26 83 32 35 75 90 80 80 55 103 57 56 71 75 28 59 94 76 109 19
23 44 49 68 15 19 21 67 26 41 64 75 87 102 49 93 74 60 81 78 35 73 84 80 109 45
